NAME: kroA100
TYPE: TSP
DIMENSION: 100
EDGE_WEIGHT_TYPE: EUC_2D
NODE_COORD_SECTION
1 20 20
2 25 25
3 30 30
4 35 35
5 40 40
6 45 45
7 50 50
8 55 55
9 60 60
10 65 65
11 70 70
12 75 75
13 80 80
14 85 85
15 90 90
16 95 95
17 100 100
18 105 105
19 110 110
20 115 115
21 120 120
22 125 125
23 130 130
24 135 135
25 140 140
26 145 145
27 150 150
28 155 155
29 160 160
30 165 165
31 170 170
32 175 175
33 180 180
34 185 185
35 190 190
36 195 195
37 200 200
38 205 205
39 210 210
40 215 215
41 220 220
42 225 225
43 230 230
44 235 235
45 240 240
46 245 245
47 250 250
48 255 255
49 260 260
50 265 265
51 270 270
52 275 275
53 280 280
54 285 285
55 290 290
56 295 295
57 300 300
58 305 305
59 310 310
60 315 315
61 320 320
62 325 325
63 330 330
64 335 335
65 340 340
66 345 345
67 350 350
68 355 355
69 360 360
70 365 365
71 370 370
72 375 375
73 380 380
74 385 385
75 390 390
76 395 395
77 400 400
78 405 405
79 410 410
80 415 415
81 420 420
82 425 425
83 430 430
84 435 435
85 440 440
86 445 445
87 450 450
88 455 455
89 460 460
90 465 465
91 470 470
92 475 475
93 480 480
94 485 485
95 490 490
96 495 495
97 500 500
98 505 505
99 510 510
100 515 515
